
===== New CPLEX run =====
Instance: /home/yorig/tuner/mpils-tests/instances/miplib/easy/lotsize.mps
Config: /scratch/yorig/mpils-results-grid-seconds-5-watchdog/easy/24proc/seed-5/4_lotsize_seed-5_20260504_011421/expansion/config_param_CPXPARAM_MIP_Strategy_VariableSelect_4_iter_1.prm
========================

Selected objective sense:  MINIMIZE
Selected objective  name:  R1921
Selected RHS        name:  B
Selected bound      name:  BOUND
Wall watchdog: enabled factor=1 grace=1 limit=6 seconds
Version identifier: 22.1.2.0 | 2024-11-26 | 0edbb82fd
CPXPARAM_Threads                                 8
CPXPARAM_Parallel                                1
CPXPARAM_MIP_Cuts_Cliques                        -1
CPXPARAM_MIP_Strategy_VariableSelect             4
CPXPARAM_MIP_Cuts_Implied                        1
CPXPARAM_MIP_Limits_GomoryCand                   25
CPXPARAM_MIP_Cuts_Gomory                         1
CPXPARAM_MIP_Cuts_PathCut                        2
CPXPARAM_MIP_Cuts_Disjunctive                    -1
CPXPARAM_Emphasis_MIP                            1
CPXPARAM_TimeLimit                               5
Tried aggregator 1 time.
MIP Presolve eliminated 595 rows and 0 columns.
MIP Presolve added 1190 rows and 0 columns.
MIP Presolve modified 10 coefficients.
Reduced MIP has 2515 rows, 2985 columns, and 7755 nonzeros.
Reduced MIP has 1195 binaries, 0 generals, 0 SOSs, and 0 indicators.
Presolve time = 0.00 sec. (4.53 ticks)
Probing fixed 0 vars, tightened 5487 bounds.
Probing time = 0.01 sec. (18.38 ticks)
Tried aggregator 2 times.
Detecting symmetries...
MIP Presolve modified 1206 coefficients.
Aggregator did 10 substitutions.
Reduced MIP has 2505 rows, 2975 columns, and 7735 nonzeros.
Reduced MIP has 1195 binaries, 0 generals, 0 SOSs, and 0 indicators.
Presolve time = 0.00 sec. (6.66 ticks)
Probing fixed 0 vars, tightened 2401 bounds.
Probing time = 0.00 sec. (6.41 ticks)
Clique table members: 190.
MIP emphasis: integer feasibility.
MIP search method: dynamic search.
Parallel mode: deterministic, using up to 8 threads.
Root relaxation solution time = 0.01 sec. (9.71 ticks)

        Nodes                                         Cuts/
   Node  Left     Objective  IInf  Best Integer    Best Bound    ItCnt     Gap

      0     0   348385.3466   472                 348385.3466      882         
      0     0   572993.6826   462                   Cuts: 726     1894         
      0     0   807159.4456   704                   Cuts: 726     2768         
      0     0   945132.1728   699                   Cuts: 726     3494         
*     0+    0                       1.01740e+07   945132.1728            90.71%
*     0+    0                      7973370.0000   945132.1728            88.15%
Detecting symmetries...
      0     2   945132.1728   699  7973370.0000   945132.1728     3494   88.15%
Elapsed time = 0.40 sec. (557.48 ticks, tree = 0.02 MB, solutions = 2)
    222   143   968946.5138   766  7973370.0000   945551.3071     8142   88.14%
    826   677  1056844.5018   526  7973370.0000   945551.3071    13826   88.14%
   1524  1394  1212615.3745   443  7973370.0000   945551.3071    22892   88.14%

Performing restart 1

Repeating presolve.
Tried aggregator 1 time.
MIP Presolve modified 1154 coefficients.
Reduced MIP has 2505 rows, 2975 columns, and 7735 nonzeros.
Reduced MIP has 1195 binaries, 0 generals, 0 SOSs, and 0 indicators.
Presolve time = 0.00 sec. (3.78 ticks)
Tried aggregator 1 time.
MIP Presolve modified 1007 coefficients.
Reduced MIP has 2505 rows, 2975 columns, and 7735 nonzeros.
Reduced MIP has 1195 binaries, 0 generals, 0 SOSs, and 0 indicators.
Presolve time = 0.00 sec. (5.12 ticks)
Represolve time = 0.02 sec. (18.35 ticks)
   1716     0  1091288.3390   725  7973370.0000     Cuts: 726    30270   86.31%
   1716     0  1178788.5355   679  7973370.0000     Cuts: 726    31084   85.22%
   1716     0  1254642.4018   737  7973370.0000     Cuts: 726    31826   84.26%
   1716     2  1254642.4018   737  7973370.0000  1258050.1343    31826   84.22%
   1732    18  1277358.4181   661  7973370.0000  1258050.1343    32602   84.22%
   1756    42  1286754.8737   620  7973370.0000  1258050.1343    33304   84.22%
   1779     4  1258949.4497   719  7973370.0000  1258050.1343    31945   84.22%
   1788    68  1345646.3996   754  7973370.0000  1258050.1343    37047   84.22%
   1825   101  1397258.8292   612  7973370.0000  1258050.1343    51986   84.22%
   2222   429  1397606.1438   546  7973370.0000  1268912.5178    73086   84.09%
Elapsed time = 4.03 sec. (5494.52 ticks, tree = 4.19 MB, solutions = 2)
*  2568+  755                      1682916.0000  1268912.5178            24.60%
*  2698+  796                      1679271.0000  1268912.5178            24.44%
*  2804+  863                      1660870.0000  1268912.5178            23.60%
*  2807+  863                      1660454.0000  1268912.5178            23.58%
   2965  1083  1600331.0775   291  1660454.0000  1268912.5178    93794   23.58%
*  2967+ 1059                      1652336.0000  1268912.5178            23.20%
*  3153+ 1149                      1629610.0000  1269681.0070            22.09%
*  3283+ 1269                      1605861.0000  1269681.0070            20.93%

Cover cuts applied:  30
Implied bound cuts applied:  16
Flow cuts applied:  583
Mixed integer rounding cuts applied:  1055
Flow path cuts applied:  125
Multi commodity flow cuts applied:  20
Lift and project cuts applied:  10
Gomory fractional cuts applied:  1

Root node processing (before b&c):
  Real time             =    0.40 sec. (553.75 ticks)
Parallel b&c, 8 threads:
  Real time             =    4.61 sec. (6258.07 ticks)
  Sync time (average)   =    0.34 sec.
  Wait time (average)   =    0.00 sec.
                          ------------
Total (root+branch&cut) =    5.01 sec. (6811.82 ticks)
Gap: 20.93%
Upper bound: 1.60586e+06
Lower bound: 1.26968e+06
Termination status: Normal
End of CPLEX run. Time: 5.00677 seconds

===== New CPLEX run =====
Instance: /home/yorig/tuner/mpils-tests/instances/miplib/easy/lotsize.mps
Config: /scratch/yorig/mpils-results-grid-seconds-5-watchdog/easy/24proc/seed-5/4_lotsize_seed-5_20260504_011421/expansion/config_param_CPXPARAM_MIP_Strategy_NodeSelect_0_iter_1.prm
========================

Selected objective sense:  MINIMIZE
Selected objective  name:  R1921
Selected RHS        name:  B
Selected bound      name:  BOUND
Wall watchdog: enabled factor=1 grace=1 limit=6 seconds
Version identifier: 22.1.2.0 | 2024-11-26 | 0edbb82fd
CPXPARAM_Threads                                 8
CPXPARAM_Parallel                                1
CPXPARAM_MIP_Cuts_Cliques                        -1
CPXPARAM_MIP_Strategy_NodeSelect                 0
CPXPARAM_MIP_Cuts_Implied                        1
CPXPARAM_MIP_Limits_GomoryCand                   25
CPXPARAM_MIP_Cuts_Gomory                         1
CPXPARAM_MIP_Cuts_PathCut                        2
CPXPARAM_MIP_Cuts_Disjunctive                    -1
CPXPARAM_Emphasis_MIP                            1
CPXPARAM_TimeLimit                               5
Tried aggregator 1 time.
MIP Presolve eliminated 595 rows and 0 columns.
MIP Presolve added 1190 rows and 0 columns.
MIP Presolve modified 10 coefficients.
Reduced MIP has 2515 rows, 2985 columns, and 7755 nonzeros.
Reduced MIP has 1195 binaries, 0 generals, 0 SOSs, and 0 indicators.
Presolve time = 0.00 sec. (4.53 ticks)
Probing fixed 0 vars, tightened 5487 bounds.
Probing time = 0.01 sec. (18.38 ticks)
Tried aggregator 2 times.
Detecting symmetries...
MIP Presolve modified 1206 coefficients.
Aggregator did 10 substitutions.
Reduced MIP has 2505 rows, 2975 columns, and 7735 nonzeros.
Reduced MIP has 1195 binaries, 0 generals, 0 SOSs, and 0 indicators.
Presolve time = 0.00 sec. (6.66 ticks)
Probing fixed 0 vars, tightened 2401 bounds.
Probing time = 0.00 sec. (6.41 ticks)
Clique table members: 190.
MIP emphasis: integer feasibility.
MIP search method: dynamic search.
Parallel mode: deterministic, using up to 8 threads.
Root relaxation solution time = 0.01 sec. (9.71 ticks)

        Nodes                                         Cuts/
   Node  Left     Objective  IInf  Best Integer    Best Bound    ItCnt     Gap

      0     0   348385.3466   472                 348385.3466      882         
      0     0   572993.6826   462                   Cuts: 726     1894         
      0     0   807159.4456   704                   Cuts: 726     2768         
      0     0   945132.1728   699                   Cuts: 726     3494         
*     0+    0                       1.01740e+07   945132.1728            90.71%
*     0+    0                      7973370.0000   945132.1728            88.15%
Detecting symmetries...
      0     2   945132.1728   699  7973370.0000   945132.1728     3494   88.15%
Elapsed time = 0.40 sec. (557.48 ticks, tree = 0.02 MB, solutions = 2)
    425   356  1012518.2428   628  7973370.0000   945551.3071     8354   88.14%
   1672  1389  1073031.9178   436  7973370.0000   945551.3071    14134   88.14%

Performing restart 1

Repeating presolve.
Tried aggregator 1 time.
MIP Presolve modified 1154 coefficients.
Reduced MIP has 2505 rows, 2975 columns, and 7735 nonzeros.
Reduced MIP has 1195 binaries, 0 generals, 0 SOSs, and 0 indicators.
Presolve time = 0.00 sec. (3.80 ticks)
Tried aggregator 1 time.
MIP Presolve modified 1007 coefficients.
Reduced MIP has 2505 rows, 2975 columns, and 7735 nonzeros.
Reduced MIP has 1195 binaries, 0 generals, 0 SOSs, and 0 indicators.
Presolve time = 0.00 sec. (5.12 ticks)
Represolve time = 0.02 sec. (18.37 ticks)
   1831     0  1091538.9007   727  7973370.0000     Cuts: 726    20235   86.31%
   1831     0  1181373.4709   686  7973370.0000     Cuts: 726    20945   85.18%
   1831     0  1257441.4555   727  7973370.0000     Cuts: 726    21759   84.23%
   1831     2  1257441.4555   727  7973370.0000  1258050.1343    21759   84.22%
   1851    22  1303720.9432   639  7973370.0000  1258050.1343    22568   84.22%
   1885    56  1354562.2821   476  7973370.0000  1258050.1343    23366   84.22%
   1928    97  1516432.6843   362  7973370.0000  1258050.1343    25510   84.22%
   1995   150  1684625.4186   219  7973370.0000  1258050.1343    32752   84.22%
*  2035+  187                      1847316.0000  1258050.1343            31.90%
*  2053+  205                      1832637.0000  1258050.1343            31.35%
*  2109+  210                      1830661.0000  1258050.1343            31.28%
   2123   219  1759159.0656   110  1830661.0000  1258050.1343    37622   31.28%
   2316   263  1828663.5833    55  1830661.0000  1258050.1343    42132   31.28%
   3675  1108  1641838.9225   281  1830661.0000  1258050.1343    77939   31.28%
Elapsed time = 3.95 sec. (5280.14 ticks, tree = 25.17 MB, solutions = 5)
*  4258  1563      integral     0  1789291.0000  1258050.1343    91222   29.69%
*  4310+ 1503                      1787465.0000  1258050.1343            29.62%
*  4776+ 1586                      1778927.0000  1258050.1343            29.28%
*  4835+ 1657                      1762725.0000  1258050.1343            28.63%
*  4838+ 1654                      1752525.0000  1258050.1343            28.21%
   5035  1602  1661447.8114   281  1752525.0000  1258050.1343   108388   28.21%
*  5400+ 1707                      1742424.0000  1258050.1343            27.80%
*  5408+ 1700                      1728000.0000  1258050.1343            27.20%
*  5415+ 1700                      1725521.0000  1258050.1343            27.09%

Cover cuts applied:  31
Implied bound cuts applied:  19
Flow cuts applied:  569
Mixed integer rounding cuts applied:  1191
Flow path cuts applied:  135
Multi commodity flow cuts applied:  22
Lift and project cuts applied:  12
Gomory fractional cuts applied:  2

Root node processing (before b&c):
  Real time             =    0.40 sec. (553.83 ticks)
Parallel b&c, 8 threads:
  Real time             =    4.60 sec. (6046.74 ticks)
  Sync time (average)   =    0.39 sec.
  Wait time (average)   =    0.00 sec.
                          ------------
Total (root+branch&cut) =    5.00 sec. (6600.57 ticks)
Gap: 27.09%
Upper bound: 1.72552e+06
Lower bound: 1.25805e+06
Termination status: Normal
End of CPLEX run. Time: 5.00466 seconds
